bomb.23.tsp
NAME : GeneratedProblem
COMMENT : SVGCrosshatch
TYPE : TSP
DIMENSION : 9
EDGE_WEIGHT_TYPE : EUC_2D
NODE_COORD_SECTION
1 700 6300
2 800 6300
3 1000 6400
4 1100 6500
5 1200 6500
6 1300 6600
7 1400 6200
8 1400 6300
9 1700 6100
EOF
