bomb.23.out.txt
NAME : GeneratedProblem.2399.tour
COMMENT : Length = 2399
COMMENT : Found by LKH [Keld Helsgaun] Sat Nov 24 14:17:57 2018
TYPE : TOUR
DIMENSION : 9
TOUR_SECTION
1
2
7
9
8
6
5
4
3
-1
EOF
